15 4 
7091	7091	7091	7091	
44	271	276	
50	912	967	
664	755	828	
198	743	794	
949	856	930	
467	886	928	
119	563	604	
155	780	818	
81	146	148	
525	405	439	
581	532	574	
235	973	1026	
60	424	432	
142	521	562	
223	688	704	
